100
150
100
100
99
98
97
97
95
94
94
94
93
93
91
90
90
89
88
88
86
85
85
84
84
84
82
82
82
81
81
81
80
75
75
75
75
74
74
74
73
72
71
70
69
69
69
68
67
65
64
64
63
63
63
63
61
61
59
58
58
58
56
56
55
54
53
53
53
51
50
49
48
48
46
46
44
44
44
43
43
43
43
42
42
42
41
41
40
40
39
39
39
39
38
36
35
35
35
33
32
32
